50
19982

896 689
902 35
727 833
717 936
152 482
825 230
929 883
284 588
254 501
733 873
433 243
271 23
33 864
369 957
61 594
828 27
223 318
396 783
947 134
384 840
643 656
441 231
113 73
91 101
958 597
638 978
493 321
205 452
916 850
830 807
636 33
313 317
629 739
299 800
212 498
420 955
137 333
456 632
996 818
451 117
975 128
46 378
245 685
910 484
269 758
648 133
443 69
223 357
315 742
108 105
